<number of tasks>
58

<cycle time>
68

<task times>
1 10
2 53
3 41
4 36
5 35
6 17
7 34
8 23
9 14
10 52
11 33
12 34
13 12
14 52
15 12
16 33
17 44
18 7
19 15
20 13
21 29
22 37
23 43
24 23
25 24
26 9
27 16
28 12
29 26
30 22
31 51
32 47
33 34
34 23
35 12
36 52
37 12
38 33
39 44
40 7
41 15
42 13
43 29
44 37
45 43
46 23
47 24
48 9
49 16
50 12
51 26
52 12
53 52
54 12
55 33
56 44
57 7
58 15

<precedence relations>
1,9
2,25
3,21
3,22
4,10
5,36
6,23
6,24
7,43
8,44
9,11
11,13
11,14
11,15
12,17
13,17
14,17
15,17
16,18
17,20
18,19
19,23
20,21
20,25
21,26
21,44
22,27
23,31
24,31
25,38
26,29
27,30
28,32
28,33
29,31
30,34
31,36
32,45
33,35
34,36
35,43
36,37
36,38
37,39
37,40
37,41
38,52
39,43
40,43
41,42
42,43
43,45
44,45
45,46
45,48
45,49
46,47
46,50
47,51
48,55
49,58
50,58
51,52
52,53
53,54
54,55
54,56
55,57
56,57
57,58

<setup times forward>
1,2:5
1,4:2
1,5:2
1,6:2
1,7:5
1,10:2
1,12:1
1,16:1
1,18:4
1,19:1
1,22:3
1,23:1
1,24:6
1,27:2
1,28:5
1,30:6
1,32:4
1,33:5
1,34:6
1,35:1
2,1:5
2,3:5
2,4:3
2,5:7
2,6:3
2,8:5
2,9:5
2,10:7
2,11:7
2,12:4
2,13:8
2,14:8
2,15:3
2,16:4
2,17:5
2,18:9
2,19:6
2,20:9
2,21:2
2,22:2
2,23:6
2,24:11
2,25:11
2,26:6
2,27:7
2,29:3
2,30:11
2,31:1
2,32:9
2,34:11
2,35:6
2,36:12
2,37:6
2,39:6
2,40:4
2,41:4
2,42:4
2,43:4
2,44:3
2,45:1
2,46:1
2,47:1
2,48:2
2,49:1
2,50:2
2,51:1
3,2:5
3,4:2
3,5:2
3,6:2
3,7:5
3,10:2
3,11:2
3,12:1
3,13:3
3,14:3
3,15:2
3,16:1
3,18:4
3,19:1
3,20:4
3,21:3
3,22:3
3,23:1
3,24:6
3,25:6
3,28:5
3,32:4
3,33:5
3,35:1
4,1:2
4,2:3
4,3:2
4,5:4
4,7:3
4,8:2
4,9:2
4,10:4
4,11:4
4,12:1
4,13:5
4,14:5
4,16:1
4,17:2
4,18:6
4,19:3
4,20:6
4,21:1
4,22:1
4,23:3
4,24:8
4,25:8
4,26:3
4,27:4
4,28:3
4,30:8
4,31:2
4,32:6
4,33:3
4,34:8
4,35:3
4,36:9
4,37:3
4,38:8
4,39:3
4,40:1
4,41:1
4,42:1
4,43:1
4,45:2
4,46:2
4,47:2
4,48:1
4,49:2
4,50:1
4,51:2
4,52:6
4,53:6
4,54:1
4,55:1
4,56:3
4,57:3
4,58:3
5,1:2
5,2:7
5,3:2
5,4:4
5,6:4
5,7:7
5,8:2
5,9:2
5,12:3
5,13:1
5,14:1
5,15:4
5,16:3
5,17:2
5,18:2
5,19:1
5,20:2
5,21:5
5,22:5
5,23:1
5,24:4
5,25:4
5,26:1
5,28:7
5,29:4
5,30:4
5,31:6
5,32:2
5,33:7
5,34:4
5,35:1
5,36:5
5,44:4
6,1:2
6,2:3
6,3:2
6,5:4
6,7:3
6,8:2
6,9:2
6,10:4
6,11:4
6,12:1
6,13:5
6,14:5
6,16:1
6,17:2
6,18:6
6,19:3
6,20:6
6,21:1
6,22:1
6,23:3
6,24:8
6,25:8
6,26:3
6,27:4
6,28:3
6,30:8
6,32:6
6,33:3
6,34:8
6,35:3
7,1:5
7,3:5
7,4:3
7,5:7
7,6:3
7,8:5
7,9:5
7,10:7
7,11:7
7,12:4
7,13:8
7,14:8
7,15:3
7,16:4
7,17:5
7,18:9
7,19:6
7,20:9
7,21:2
7,22:2
7,23:6
7,24:11
7,25:11
7,26:6
7,27:7
7,29:3
7,30:11
7,31:1
7,32:9
7,34:11
7,35:6
7,36:12
7,37:6
7,38:11
7,39:6
7,40:4
7,41:4
7,42:4
7,43:4
7,44:3
8,2:5
8,4:2
8,5:2
8,6:2
8,7:5
8,10:2
8,11:2
8,12:1
8,13:3
8,14:3
8,15:2
8,16:1
8,18:4
8,19:1
8,20:4
8,21:3
8,22:3
8,23:1
8,24:6
8,25:6
8,26:1
8,27:2
8,28:5
8,29:2
8,30:6
8,31:4
8,32:4
8,33:5
8,34:6
8,35:1
8,36:7
8,37:1
8,38:6
8,39:1
8,40:1
8,41:1
8,42:1
8,43:1
8,44:2
9,2:5
9,4:2
9,5:2
9,6:2
9,7:5
9,10:2
9,11:2
9,12:1
9,16:1
9,18:4
9,19:1
9,22:3
9,23:1
9,24:6
9,27:2
9,28:5
9,30:6
9,32:4
9,33:5
9,34:6
9,35:1
10,1:2
10,2:7
10,3:2
10,6:4
10,7:7
10,8:2
10,9:2
10,12:3
10,13:1
10,14:1
10,15:4
10,16:3
10,17:2
10,18:2
10,19:1
10,20:2
10,21:5
10,22:5
10,23:1
10,24:4
10,25:4
10,26:1
10,28:7
10,29:4
10,30:4
10,31:6
10,32:2
10,33:7
10,34:4
10,35:1
10,36:5
10,37:1
10,38:4
10,39:1
10,40:3
10,41:3
10,42:3
10,43:3
10,44:4
10,45:6
10,46:6
10,47:6
10,48:5
10,49:6
10,50:5
10,51:6
10,52:2
10,53:2
10,54:5
10,55:5
10,56:1
10,57:1
10,58:1
11,2:7
11,3:2
11,4:4
11,6:4
11,7:7
11,8:2
11,12:3
11,13:1
11,14:1
11,15:4
11,16:3
11,18:2
11,19:1
11,22:5
11,23:1
11,24:4
11,28:7
11,30:4
11,32:2
11,33:7
11,34:4
11,35:1
12,1:1
12,2:4
12,3:1
12,4:1
12,5:3
12,6:1
12,7:4
12,8:1
12,9:1
12,10:3
12,11:3
12,13:4
12,14:4
12,15:1
12,17:1
12,18:5
12,19:2
12,22:2
12,23:2
12,24:7
12,27:3
12,28:4
12,30:7
12,32:5
12,33:4
12,34:7
12,35:2
13,2:8
13,3:3
13,4:5
13,5:1
13,6:5
13,7:8
13,8:3
13,10:1
13,12:4
13,15:5
13,16:4
13,17:3
13,18:1
13,19:2
13,22:6
13,23:2
13,24:3
13,27:1
13,28:8
13,30:3
13,32:1
13,33:8
13,34:3
13,35:2
14,2:8
14,3:3
14,4:5
14,5:1
14,6:5
14,7:8
14,8:3
14,10:1
14,12:4
14,15:5
14,16:4
14,17:3
14,18:1
14,19:2
14,22:6
14,23:2
14,24:3
14,27:1
14,28:8
14,30:3
14,32:1
14,33:8
14,34:3
14,35:2
15,2:3
15,3:2
15,5:4
15,7:3
15,8:2
15,10:4
15,12:1
15,13:5
15,14:5
15,16:1
15,17:2
15,18:6
15,19:3
15,22:1
15,23:3
15,24:8
15,27:4
15,28:3
15,30:8
15,32:6
15,33:3
15,34:8
15,35:3
16,1:1
16,2:4
16,3:1
16,4:1
16,5:3
16,6:1
16,7:4
16,8:1
16,9:1
16,10:3
16,11:3
16,13:4
16,14:4
16,15:1
16,17:1
16,18:5
16,20:5
16,21:2
16,22:2
16,24:7
16,25:7
16,26:2
16,27:3
16,28:4
16,29:1
16,30:7
16,32:5
16,33:4
16,34:7
16,35:2
16,44:1
17,2:5
17,4:2
17,5:2
17,6:2
17,7:5
17,10:2
17,16:1
17,18:4
17,19:1
17,20:4
17,22:3
17,23:1
17,24:6
17,27:2
17,28:5
17,30:6
17,32:4
17,33:5
17,34:6
17,35:1
18,1:4
18,2:9
18,3:4
18,4:6
18,5:2
18,6:6
18,7:9
18,8:4
18,9:4
18,10:2
18,11:2
18,12:5
18,13:1
18,14:1
18,15:6
18,17:4
18,19:3
18,21:7
18,22:7
18,24:2
18,25:2
18,26:3
18,27:2
18,28:9
18,29:6
18,30:2
18,33:9
18,34:2
18,35:3
18,44:6
19,1:1
19,2:6
19,3:1
19,4:3
19,5:1
19,6:3
19,7:6
19,8:1
19,9:1
19,10:1
19,11:1
19,12:2
19,13:2
19,14:2
19,15:3
19,17:1
19,20:3
19,21:4
19,22:4
19,24:5
19,25:5
19,27:1
19,28:6
19,29:3
19,30:5
19,32:3
19,33:6
19,34:5
19,44:3
20,2:9
20,3:4
20,4:6
20,5:2
20,6:6
20,7:9
20,8:4
20,10:2
20,16:5
20,19:3
20,21:7
20,22:7
20,23:3
20,24:2
20,25:2
20,27:2
20,28:9
20,30:2
20,33:9
20,34:2
20,35:3
21,2:2
21,4:1
21,5:5
21,6:1
21,7:2
21,8:3
21,10:5
21,16:2
21,18:7
21,19:4
21,23:4
21,24:9
21,25:9
21,26:4
21,27:5
21,28:2
21,30:9
21,32:7
21,33:2
21,34:9
21,35:4
21,44:1
22,1:3
22,2:2
22,4:1
22,5:5
22,6:1
22,7:2
22,8:3
22,9:3
22,10:5
22,11:5
22,12:2
22,13:6
22,14:6
22,15:1
22,16:2
22,17:3
22,18:7
22,19:4
22,20:7
22,23:4
22,24:9
22,25:9
22,26:4
22,27:5
22,28:2
22,29:1
22,31:1
22,32:7
22,33:2
22,35:4
22,44:1
23,1:1
23,2:6
23,3:1
23,4:3
23,5:1
23,7:6
23,8:1
23,9:1
23,10:1
23,11:1
23,12:2
23,13:2
23,14:2
23,15:3
23,17:1
23,20:3
23,21:4
23,22:4
23,24:5
23,25:5
23,27:1
23,28:6
23,29:3
23,30:5
23,31:5
23,32:3
23,33:6
23,34:5
23,44:3
24,1:6
24,2:11
24,3:6
24,4:8
24,5:4
24,7:11
24,8:6
24,9:6
24,10:4
24,11:4
24,12:7
24,13:3
24,14:3
24,15:8
24,16:7
24,17:6
24,18:2
24,19:5
24,20:2
24,21:9
24,22:9
24,23:5
24,26:5
24,27:4
24,28:11
24,29:8
24,31:10
24,32:2
24,33:11
24,35:5
24,44:8
25,3:6
25,4:8
25,5:4
25,6:8
25,7:11
25,8:6
25,10:4
25,16:7
25,18:2
25,19:5
25,21:9
25,22:9
25,23:5
25,26:5
25,27:4
25,28:11
25,29:8
25,31:10
25,32:2
25,33:11
25,35:5
25,36:1
25,37:5
25,39:5
25,40:7
25,41:7
25,42:7
25,43:7
25,44:8
25,45:10
25,46:10
25,47:10
25,48:9
25,49:10
25,50:9
25,51:10
26,2:6
26,4:3
26,5:1
26,6:3
26,7:6
26,8:1
26,10:1
26,16:2
26,18:3
26,22:4
26,24:5
26,25:5
26,27:1
26,28:6
26,29:3
26,30:5
26,32:3
26,33:6
26,34:5
26,44:3
27,1:2
27,2:7
27,4:4
27,6:4
27,7:7
27,8:2
27,9:2
27,12:3
27,13:1
27,14:1
27,15:4
27,16:3
27,17:2
27,18:2
27,19:1
27,20:2
27,21:5
27,23:1
27,24:4
27,25:4
27,26:1
27,28:7
27,29:4
27,30:4
27,31:6
27,32:2
27,33:7
27,35:1
27,44:4
28,1:5
28,3:5
28,4:3
28,5:7
28,6:3
28,8:5
28,9:5
28,10:7
28,11:7
28,12:4
28,13:8
28,14:8
28,15:3
28,16:4
28,17:5
28,18:9
28,19:6
28,20:9
28,21:2
28,22:2
28,23:6
28,24:11
28,25:11
28,26:6
28,27:7
28,29:3
28,30:11
28,31:1
28,32:9
28,34:11
28,36:12
28,37:6
28,38:11
28,39:6
28,40:4
28,41:4
28,42:4
28,44:3
29,2:3
29,5:4
29,7:3
29,8:2
29,10:4
29,16:1
29,18:6
29,19:3
29,22:1
29,23:3
29,24:8
29,25:8
29,27:4
29,28:3
29,30:8
29,31:2
29,32:6
29,33:3
29,34:8
29,35:3
30,1:6
30,2:11
30,4:8
30,5:4
30,6:8
30,7:11
30,8:6
30,9:6
30,10:4
30,11:4
30,12:7
30,13:3
30,14:3
30,15:8
30,16:7
30,17:6
30,18:2
30,19:5
30,20:2
30,21:9
30,23:5
30,26:5
30,28:11
30,29:8
30,31:10
30,32:2
30,33:11
30,35:5
30,44:8
31,2:1
31,4:2
31,5:6
31,7:1
31,8:4
31,10:6
31,22:1
31,25:10
31,27:6
31,28:1
31,30:10
31,32:8
31,33:1
31,34:10
31,35:5
31,36:11
31,44:2
32,1:4
32,2:9
32,3:4
32,4:6
32,5:2
32,6:6
32,7:9
32,8:4
32,9:4
32,10:2
32,11:2
32,12:5
32,13:1
32,14:1
32,15:6
32,16:5
32,17:4
32,19:3
32,21:7
32,22:7
32,23:3
32,24:2
32,25:2
32,26:3
32,27:2
32,29:6
32,30:2
32,31:8
32,33:9
32,34:2
32,35:3
32,36:3
32,37:3
32,38:2
32,39:3
32,40:5
32,41:5
32,42:5
32,43:5
32,44:6
32,45:8
33,1:5
33,3:5
33,4:3
33,5:7
33,6:3
33,8:5
33,9:5
33,10:7
33,11:7
33,12:4
33,13:8
33,14:8
33,15:3
33,16:4
33,17:5
33,18:9
33,19:6
33,20:9
33,21:2
33,22:2
33,23:6
33,24:11
33,25:11
33,26:6
33,27:7
33,29:3
33,30:11
33,31:1
33,32:9
33,34:11
33,35:6
33,36:12
33,37:6
33,38:11
33,39:6
33,40:4
33,41:4
33,42:4
33,44:3
34,1:6
34,2:11
34,4:8
34,5:4
34,6:8
34,7:11
34,8:6
34,9:6
34,10:4
34,11:4
34,12:7
34,13:3
34,14:3
34,15:8
34,16:7
34,17:6
34,18:2
34,19:5
34,20:2
34,21:9
34,23:5
34,26:5
34,28:11
34,29:8
34,31:10
34,32:2
34,33:11
34,35:5
34,36:1
34,44:8
35,1:1
35,2:6
35,3:1
35,4:3
35,5:1
35,6:3
35,7:6
35,8:1
35,9:1
35,10:1
35,11:1
35,12:2
35,13:2
35,14:2
35,15:3
35,16:2
35,17:1
35,18:3
35,20:3
35,21:4
35,22:4
35,24:5
35,25:5
35,27:1
35,29:3
35,30:5
35,31:5
35,32:3
35,34:5
35,36:6
35,38:5
35,40:2
35,41:2
35,42:2
35,43:2
35,44:3
36,2:12
36,4:9
36,7:12
36,8:7
36,10:5
36,25:1
36,28:12
36,32:3
36,33:12
36,35:6
36,37:6
36,38:1
36,44:9
37,2:6
37,4:3
37,7:6
37,8:1
37,10:1
37,25:5
37,28:6
37,32:3
37,33:6
37,38:5
37,40:2
37,41:2
37,44:3
38,4:8
38,7:11
38,8:6
38,10:4
38,28:11
38,32:2
38,33:11
38,35:5
38,37:5
38,39:5
38,40:7
38,41:7
38,42:7
38,43:7
38,44:8
38,45:10
38,46:10
38,47:10
38,48:9
38,49:10
38,50:9
38,51:10
38,52:2
39,2:6
39,4:3
39,7:6
39,8:1
39,10:1
39,25:5
39,28:6
39,32:3
39,33:6
39,38:5
39,40:2
39,41:2
39,42:2
39,43:2
39,44:3
40,2:4
40,4:1
40,7:4
40,8:1
40,10:3
40,25:7
40,28:4
40,32:5
40,33:4
40,35:2
40,38:7
40,39:2
40,44:1
41,2:4
41,4:1
41,7:4
41,8:1
41,10:3
41,25:7
41,28:4
41,32:5
41,33:4
41,35:2
41,38:7
41,39:2
41,44:1
42,2:4
42,4:1
42,7:4
42,8:1
42,10:3
42,25:7
42,28:4
42,32:5
42,33:4
42,35:2
42,38:7
42,39:2
42,44:1
43,2:4
43,4:1
43,8:1
43,10:3
43,25:7
43,32:5
43,38:7
43,44:1
43,45:3
44,2:3
44,5:4
44,7:3
44,10:4
44,16:1
44,18:6
44,19:3
44,22:1
44,23:3
44,24:8
44,25:8
44,26:3
44,27:4
44,28:3
44,30:8
44,31:2
44,32:6
44,33:3
44,34:8
44,35:3
44,36:9
44,37:3
44,38:8
44,39:3
44,40:1
44,41:1
44,42:1
44,43:1
44,45:2
45,2:1
45,4:2
45,10:6
45,25:10
45,38:10
45,48:1
46,2:1
46,4:2
46,10:6
46,25:10
46,38:10
46,48:1
46,50:1
47,2:1
47,4:2
47,10:6
47,25:10
47,38:10
47,48:1
47,50:1
48,2:2
48,4:1
48,10:5
48,25:9
48,38:9
48,46:1
48,47:1
48,49:1
48,51:1
48,52:7
48,53:7
48,56:4
49,2:1
49,4:2
49,10:6
49,25:10
49,38:10
49,48:1
49,50:1
49,52:8
49,53:8
49,54:1
49,55:1
49,56:5
49,57:5
49,58:5
50,2:2
50,4:1
50,10:5
50,25:9
50,38:9
50,47:1
50,49:1
50,51:1
50,52:7
50,53:7
50,56:4
50,57:4
50,58:4
51,2:1
51,4:2
51,10:6
51,25:10
51,38:10
51,48:1
51,50:1
51,52:8
52,4:6
52,10:2
52,48:7
52,49:8
52,50:7
53,4:6
53,10:2
53,48:7
53,49:8
53,50:7
53,54:7
54,4:1
54,10:5
54,49:1
54,56:4
55,4:1
55,10:5
55,49:1
55,56:4
55,57:4
56,4:3
56,10:1
56,48:4
56,49:5
56,50:4
56,55:4
57,4:3
57,10:1
57,49:5
57,50:4
58,4:3
58,10:1

<setup times backward>
1,5:2
1,10:2
1,18:4
1,19:1
1,23:1
1,24:6
1,27:2
1,30:6
1,32:4
1,34:6
1,35:1
2,1:5
2,3:5
2,4:3
2,5:7
2,6:3
2,8:5
2,9:5
2,10:7
2,11:7
2,12:4
2,13:8
2,14:8
2,15:3
2,16:4
2,17:5
2,18:9
2,19:6
2,20:9
2,21:2
2,22:2
2,23:6
2,24:11
2,26:6
2,27:7
2,29:3
2,30:11
2,31:1
2,32:9
2,34:11
2,35:6
2,36:12
2,37:6
2,39:6
2,40:4
2,41:4
2,42:4
2,43:4
2,44:3
2,45:1
2,46:1
2,47:1
2,48:2
2,49:1
2,50:2
2,51:1
3,5:2
3,10:2
3,11:2
3,13:3
3,14:3
3,18:4
3,19:1
3,20:4
3,23:1
3,24:6
3,25:6
3,32:4
3,35:1
4,1:2
4,3:2
4,5:4
4,8:2
4,9:2
4,11:4
4,12:1
4,13:5
4,14:5
4,16:1
4,17:2
4,18:6
4,19:3
4,20:6
4,23:3
4,24:8
4,25:8
4,26:3
4,27:4
4,30:8
4,32:6
4,34:8
4,35:3
4,36:9
4,37:3
4,38:8
4,39:3
4,40:1
4,41:1
4,42:1
4,43:1
4,52:6
4,53:6
4,56:3
4,57:3
4,58:3
5,13:1
5,14:1
5,18:2
5,20:2
5,24:4
5,25:4
5,30:4
5,32:2
5,34:4
6,1:2
6,3:2
6,5:4
6,8:2
6,9:2
6,10:4
6,11:4
6,12:1
6,13:5
6,14:5
6,16:1
6,17:2
6,18:6
6,19:3
6,20:6
6,25:8
6,26:3
6,27:4
6,30:8
6,32:6
6,34:8
6,35:3
7,1:5
7,3:5
7,4:3
7,5:7
7,6:3
7,8:5
7,9:5
7,10:7
7,11:7
7,12:4
7,13:8
7,14:8
7,15:3
7,16:4
7,17:5
7,18:9
7,19:6
7,20:9
7,21:2
7,22:2
7,23:6
7,24:11
7,25:11
7,26:6
7,27:7
7,29:3
7,30:11
7,31:1
7,32:9
7,34:11
7,35:6
7,36:12
7,37:6
7,38:11
7,39:6
7,40:4
7,41:4
7,42:4
7,44:3
8,5:2
8,10:2
8,11:2
8,13:3
8,14:3
8,18:4
8,19:1
8,20:4
8,23:1
8,24:6
8,25:6
8,26:1
8,27:2
8,30:6
8,32:4
8,34:6
8,35:1
8,36:7
8,37:1
8,38:6
8,39:1
9,5:2
9,10:2
9,18:4
9,19:1
9,23:1
9,24:6
9,27:2
9,30:6
9,32:4
9,34:6
9,35:1
10,13:1
10,14:1
10,18:2
10,20:2
10,24:4
10,25:4
10,30:4
10,32:2
10,34:4
10,36:5
10,38:4
10,52:2
10,53:2
11,18:2
11,24:4
11,30:4
11,32:2
11,34:4
12,1:1
12,3:1
12,5:3
12,8:1
12,9:1
12,10:3
12,11:3
12,13:4
12,14:4
12,18:5
12,19:2
12,23:2
12,24:7
12,27:3
12,30:7
12,32:5
12,34:7
12,35:2
13,18:1
13,24:3
13,30:3
13,32:1
13,34:3
14,18:1
14,24:3
14,30:3
14,32:1
14,34:3
15,1:2
15,3:2
15,5:4
15,8:2
15,9:2
15,10:4
15,11:4
15,12:1
15,13:5
15,14:5
15,16:1
15,18:6
15,19:3
15,23:3
15,24:8
15,27:4
15,30:8
15,32:6
15,34:8
15,35:3
16,1:1
16,3:1
16,5:3
16,8:1
16,9:1
16,10:3
16,11:3
16,13:4
16,14:4
16,17:1
16,20:5
16,24:7
16,25:7
16,26:2
16,27:3
16,30:7
16,32:5
16,34:7
16,35:2
17,5:2
17,10:2
17,11:2
17,13:3
17,14:3
17,18:4
17,19:1
17,23:1
17,24:6
17,27:2
17,30:6
17,32:4
17,34:6
17,35:1
18,24:2
18,25:2
18,30:2
18,34:2
19,5:1
19,10:1
19,11:1
19,13:2
19,14:2
19,18:3
19,20:3
19,24:5
19,25:5
19,27:1
19,30:5
19,32:3
19,34:5
20,24:2
20,30:2
20,34:2
21,1:3
21,3:3
21,4:1
21,5:5
21,6:1
21,8:3
21,9:3
21,10:5
21,11:5
21,12:2
21,13:6
21,14:6
21,15:1
21,16:2
21,17:3
21,18:7
21,19:4
21,20:7
21,23:4
21,24:9
21,25:9
21,27:5
21,30:9
21,32:7
21,34:9
21,35:4
22,1:3
22,3:3
22,4:1
22,5:5
22,6:1
22,8:3
22,9:3
22,10:5
22,11:5
22,12:2
22,13:6
22,14:6
22,15:1
22,16:2
22,17:3
22,18:7
22,19:4
22,20:7
22,23:4
22,24:9
22,25:9
22,26:4
22,29:1
22,32:7
22,35:4
22,44:1
23,5:1
23,10:1
23,11:1
23,13:2
23,14:2
23,18:3
23,20:3
23,24:5
23,25:5
23,27:1
23,30:5
23,32:3
23,34:5
25,36:1
26,5:1
26,10:1
26,11:1
26,13:2
26,14:2
26,18:3
26,20:3
26,24:5
26,25:5
26,27:1
26,30:5
26,32:3
26,34:5
27,13:1
27,14:1
27,18:2
27,20:2
27,24:4
27,25:4
27,32:2
28,1:5
28,3:5
28,4:3
28,5:7
28,6:3
28,8:5
28,9:5
28,10:7
28,11:7
28,12:4
28,13:8
28,14:8
28,15:3
28,16:4
28,17:5
28,18:9
28,19:6
28,20:9
28,21:2
28,22:2
28,23:6
28,24:11
28,25:11
28,26:6
28,27:7
28,29:3
28,30:11
28,31:1
28,34:11
28,36:12
28,37:6
28,38:11
28,39:6
28,40:4
28,41:4
28,42:4
28,44:3
29,1:2
29,3:2
29,5:4
29,8:2
29,9:2
29,10:4
29,11:4
29,12:1
29,13:5
29,14:5
29,16:1
29,17:2
29,18:6
29,19:3
29,20:6
29,23:3
29,24:8
29,25:8
29,26:3
29,27:4
29,30:8
29,32:6
29,34:8
29,35:3
31,1:4
31,3:4
31,4:2
31,5:6
31,6:2
31,8:4
31,9:4
31,10:6
31,11:6
31,12:3
31,13:7
31,14:7
31,15:2
31,16:3
31,17:4
31,18:8
31,19:5
31,20:8
31,21:1
31,22:1
31,23:5
31,24:10
31,25:10
31,26:5
31,27:6
31,29:2
31,30:10
31,32:8
31,34:10
31,35:5
31,44:2
32,24:2
32,25:2
32,30:2
32,34:2
32,36:3
32,38:2
33,1:5
33,3:5
33,4:3
33,5:7
33,6:3
33,8:5
33,9:5
33,10:7
33,11:7
33,12:4
33,13:8
33,14:8
33,15:3
33,16:4
33,17:5
33,18:9
33,19:6
33,20:9
33,21:2
33,22:2
33,23:6
33,24:11
33,25:11
33,26:6
33,27:7
33,29:3
33,30:11
33,31:1
33,32:9
33,34:11
33,36:12
33,37:6
33,38:11
33,39:6
33,40:4
33,41:4
33,42:4
33,44:3
35,5:1
35,10:1
35,11:1
35,13:2
35,14:2
35,18:3
35,20:3
35,24:5
35,25:5
35,27:1
35,30:5
35,32:3
35,34:5
35,36:6
35,38:5
37,5:1
37,10:1
37,11:1
37,13:2
37,14:2
37,18:3
37,20:3
37,24:5
37,25:5
37,27:1
37,30:5
37,32:3
37,34:5
37,36:6
37,38:5
38,36:1
39,5:1
39,10:1
39,11:1
39,13:2
39,14:2
39,18:3
39,20:3
39,24:5
39,25:5
39,27:1
39,30:5
39,32:3
39,34:5
39,36:6
39,38:5
40,1:1
40,3:1
40,5:3
40,8:1
40,9:1
40,10:3
40,11:3
40,13:4
40,14:4
40,17:1
40,18:5
40,19:2
40,20:5
40,23:2
40,24:7
40,25:7
40,26:2
40,27:3
40,30:7
40,32:5
40,34:7
40,35:2
40,36:8
40,37:2
40,38:7
40,39:2
41,1:1
41,3:1
41,5:3
41,8:1
41,9:1
41,10:3
41,11:3
41,13:4
41,14:4
41,17:1
41,18:5
41,19:2
41,20:5
41,23:2
41,24:7
41,25:7
41,26:2
41,27:3
41,30:7
41,32:5
41,34:7
41,35:2
41,36:8
41,37:2
41,38:7
41,39:2
42,1:1
42,3:1
42,5:3
42,8:1
42,9:1
42,10:3
42,11:3
42,13:4
42,14:4
42,17:1
42,18:5
42,19:2
42,20:5
42,23:2
42,24:7
42,25:7
42,26:2
42,27:3
42,30:7
42,32:5
42,34:7
42,35:2
42,36:8
42,37:2
42,38:7
42,39:2
43,1:1
43,3:1
43,5:3
43,8:1
43,9:1
43,10:3
43,11:3
43,13:4
43,14:4
43,17:1
43,18:5
43,19:2
43,20:5
43,23:2
43,24:7
43,25:7
43,26:2
43,27:3
43,30:7
43,32:5
43,34:7
43,35:2
43,36:8
43,37:2
43,38:7
43,39:2
44,1:2
44,3:2
44,5:4
44,8:2
44,9:2
44,10:4
44,11:4
44,12:1
44,13:5
44,14:5
44,16:1
44,17:2
44,18:6
44,19:3
44,20:6
44,23:3
44,24:8
44,25:8
44,26:3
44,27:4
44,30:8
44,32:6
44,34:8
44,35:3
44,36:9
44,37:3
44,38:8
44,39:3
44,40:1
44,41:1
44,42:1
44,43:1
45,1:4
45,3:4
45,4:2
45,5:6
45,6:2
45,8:4
45,9:4
45,10:6
45,11:6
45,12:3
45,13:7
45,14:7
45,15:2
45,16:3
45,17:4
45,18:8
45,19:5
45,20:8
45,21:1
45,22:1
45,23:5
45,24:10
45,25:10
45,26:5
45,27:6
45,29:2
45,30:10
45,32:8
45,34:10
45,35:5
45,36:11
45,37:5
45,38:10
45,39:5
45,40:3
45,41:3
45,42:3
45,43:3
45,44:2
46,1:4
46,3:4
46,4:2
46,5:6
46,6:2
46,8:4
46,9:4
46,10:6
46,11:6
46,12:3
46,13:7
46,14:7
46,15:2
46,16:3
46,17:4
46,18:8
46,19:5
46,20:8
46,21:1
46,22:1
46,23:5
46,24:10
46,25:10
46,26:5
46,27:6
46,29:2
46,30:10
46,32:8
46,34:10
46,35:5
46,36:11
46,37:5
46,38:10
46,39:5
46,40:3
46,41:3
46,42:3
46,43:3
46,44:2
46,48:1
47,1:4
47,3:4
47,4:2
47,5:6
47,6:2
47,8:4
47,9:4
47,10:6
47,11:6
47,12:3
47,13:7
47,14:7
47,15:2
47,16:3
47,17:4
47,18:8
47,19:5
47,20:8
47,21:1
47,22:1
47,23:5
47,24:10
47,25:10
47,26:5
47,27:6
47,29:2
47,30:10
47,32:8
47,34:10
47,35:5
47,36:11
47,37:5
47,38:10
47,39:5
47,40:3
47,41:3
47,42:3
47,43:3
47,44:2
47,48:1
47,50:1
48,1:3
48,3:3
48,4:1
48,5:5
48,6:1
48,8:3
48,9:3
48,10:5
48,11:5
48,12:2
48,13:6
48,14:6
48,15:1
48,16:2
48,17:3
48,18:7
48,19:4
48,20:7
48,23:4
48,24:9
48,25:9
48,26:4
48,27:5
48,29:1
48,30:9
48,32:7
48,34:9
48,35:4
48,36:10
48,37:4
48,38:9
48,39:4
48,40:2
48,41:2
48,42:2
48,43:2
48,44:1
48,52:7
48,53:7
48,56:4
49,1:4
49,3:4
49,4:2
49,5:6
49,6:2
49,8:4
49,9:4
49,10:6
49,11:6
49,12:3
49,13:7
49,14:7
49,15:2
49,16:3
49,17:4
49,18:8
49,19:5
49,20:8
49,21:1
49,22:1
49,23:5
49,24:10
49,25:10
49,26:5
49,27:6
49,29:2
49,30:10
49,32:8
49,34:10
49,35:5
49,36:11
49,37:5
49,38:10
49,39:5
49,40:3
49,41:3
49,42:3
49,43:3
49,44:2
49,48:1
49,50:1
49,52:8
49,53:8
49,54:1
49,55:1
49,56:5
49,57:5
50,1:3
50,3:3
50,4:1
50,5:5
50,6:1
50,8:3
50,9:3
50,10:5
50,11:5
50,12:2
50,13:6
50,14:6
50,15:1
50,16:2
50,17:3
50,18:7
50,19:4
50,20:7
50,23:4
50,24:9
50,25:9
50,26:4
50,27:5
50,29:1
50,30:9
50,32:7
50,34:9
50,35:4
50,36:10
50,37:4
50,38:9
50,39:4
50,40:2
50,41:2
50,42:2
50,43:2
50,44:1
50,52:7
50,53:7
50,56:4
50,57:4
51,1:4
51,3:4
51,4:2
51,5:6
51,6:2
51,8:4
51,9:4
51,10:6
51,11:6
51,12:3
51,13:7
51,14:7
51,15:2
51,16:3
51,17:4
51,18:8
51,19:5
51,20:8
51,21:1
51,22:1
51,23:5
51,24:10
51,25:10
51,26:5
51,27:6
51,29:2
51,30:10
51,32:8
51,34:10
51,35:5
51,36:11
51,37:5
51,38:10
51,39:5
51,40:3
51,41:3
51,42:3
51,43:3
51,44:2
51,48:1
51,50:1
52,24:2
52,25:2
52,30:2
52,34:2
52,36:3
52,38:2
53,24:2
53,25:2
53,30:2
53,34:2
53,36:3
53,38:2
54,1:3
54,3:3
54,4:1
54,5:5
54,6:1
54,8:3
54,9:3
54,10:5
54,11:5
54,12:2
54,13:6
54,14:6
54,15:1
54,16:2
54,17:3
54,18:7
54,19:4
54,20:7
54,23:4
54,24:9
54,25:9
54,26:4
54,27:5
54,29:1
54,30:9
54,32:7
54,34:9
54,35:4
54,36:10
54,37:4
54,38:9
54,39:4
54,40:2
54,41:2
54,42:2
54,43:2
54,44:1
54,52:7
54,53:7
55,1:3
55,3:3
55,4:1
55,5:5
55,6:1
55,8:3
55,9:3
55,10:5
55,11:5
55,12:2
55,13:6
55,14:6
55,15:1
55,16:2
55,17:3
55,18:7
55,19:4
55,20:7
55,23:4
55,24:9
55,25:9
55,26:4
55,27:5
55,29:1
55,30:9
55,32:7
55,34:9
55,35:4
55,36:10
55,37:4
55,38:9
55,39:4
55,40:2
55,41:2
55,42:2
55,43:2
55,44:1
55,52:7
55,53:7
55,56:4
56,5:1
56,10:1
56,11:1
56,13:2
56,14:2
56,18:3
56,20:3
56,24:5
56,25:5
56,27:1
56,30:5
56,32:3
56,34:5
56,36:6
56,38:5
56,52:3
56,53:3
57,5:1
57,10:1
57,11:1
57,13:2
57,14:2
57,18:3
57,20:3
57,24:5
57,25:5
57,27:1
57,30:5
57,32:3
57,34:5
57,36:6
57,38:5
57,52:3
57,53:3
58,5:1
58,10:1
58,11:1
58,13:2
58,14:2
58,18:3
58,20:3
58,24:5
58,25:5
58,27:1
58,30:5
58,32:3
58,34:5
58,36:6
58,38:5
58,52:3
58,53:3

<end>

<optimal SALBP-1 value>
24


<rand seed>
467321153

<Lower Bounds>
Lm1=23
Lms1=23
Lm2=19
Lm3=21
Lm4=23
Best=23

<Optimal Stations (Iterations: 10)>
31
